p cnf 48 7
30 29 -4 44 -16 42 39 25 -18 42 22 -48 15 30 -16 39 -27 -27 -36 -37 -24 8 -13 -33 0
-47 12 -21 25 -36 -32 38 11 19 38 -12 -12 4 38 -18 -14 -41 11 42 -22 -30 46 -2 -28 -29 -26 -11 0
19 -38 2 -42 -5 -14 -44 -34 -26 -33 -12 24 -46 -3 -25 -4 -2 -48 -17 -24 -33 -6 21 7 -39 34 -35 0
1 20 21 15 9 13 -3 38 -15 26 6 10 20 0
31 -20 -36 -7 -16 -15 20 4 -5 36 33 12 -6 -45 -41 37 20 5 33 0
14 -42 28 -30 0
2 35 34 -19 -19 42 17 48 -9 -1 23 17 18 27 -35 -11 -3 44 -44 -22 23 -15 -44 -45 22 47 1 37 41 37 17 1 -10 38 -2 -13 20 -29 -4 31 39 9 4 -19 12 -34 30 0